7 12 5 8 3 14 13 9 0 1 4 2 6 11 10
8 0 5 13 6 1 4 2 3 11 10 12 9 14 7
6 8 7 1 9 5 12 4 0 2 14 11 3 13 10
12 0 14 7 13 1 6 8 11 2 3 9 5 10 4
8 2 12 11 10 9 4 3 14 5 0 7 6 13 1
13 8 6 11 14 9 12 7 0 1 10 2 5 3 4
4 1 2 13 7 6 0 8 12 14 10 9 5 3 11
4 10 14 3 6 13 11 9 0 5 1 12 8 7 2
7 1 5 4 14 8 0 9 12 3 10 2 13 11 6
3 6 13 4 5 10 2 8 12 11 9 7 14 1 0
1 4 7 2 14 10 12 13 6 5 9 0 3 8 11
0 7 14 13 8 3 6 9 5 12 10 4 1 2 11
14 10 0 8 12 13 4 11 1 3 6 5 2 9 7
13 4 8 6 5 2 9 0 11 12 1 3 14 7 10
14 2 6 4 3 11 1 5 7 0 8 10 9 12 13